80 14040432
59 47 18 36 80 15 73 45 55 51 48 68 78 53 66 63 56 79 34 16 43 54 5 57 26 30 49 22 72 39 61 76 20 10 67 25 32 9 69 8 7 37 31 65 77 74 29 33 17 70 1 14 11 19 4 62 23 42 71 75 27 50 3 38 13 46 44 35 6 12 64 41 58 21 24 28 52 2 60 40 
